
  22   10
  10   10   10   10   10   10   10   10   10   10

   0   0   0   0   0   0   0   0   0   0   0   2 2 21 
   3  10  10  10  10  10  10  10  10  10  10   1 3 
   8  10  10  10  10  10  10  10  10  10  10   2 10 4 
   5  10  10  10  10  10  10  10  10  10  10   1 5 
   5  10  10  10  10  10  10  10  10  10  10   1 6 
   7  10  10  10  10  10  10  10  10  10  10   2 11 7 
   3  10  10  10  10  10  10  10  10  10  10   1 8 
   3  10  10  10  10  10  10  10  10  10  10   1 9 
   6  10  10  10  10  10  10  10  10  10  10   2 20 12 
   8  10  10  10  10  10  10  10  10  10  10   1 11 
   4  10  10  10  10  10  10  10  10  10  10   1 12 
   7  10  10  10  10  10  10  10  10  10  10   1 13 
   1  10  10  10  10  10  10  10  10  10  10   2 19 14 
  10  10  10  10  10  10  10  10  10  10  10   2 18 15 
  10  10  10  10  10  10  10  10  10  10  10   1 16 
   2  10  10  10  10  10  10  10  10  10  10   1 17 
   3  10  10  10  10  10  10  10  10  10  10   1 22
   2  10  10  10  10  10  10  10  10  10  10   1 22
   2  10  10  10  10  10  10  10  10  10  10   1 22
   9  10  10  10  10  10  10  10  10  10  10   1 22
   8  10  10  10  10  10  10  10  10  10  10   1 22
   0   0   0   0   0   0   0   0   0   0   0   0 
